# Autres donnees possibles pour 
# le probleme de fabrication 
# de ciment

data;

set PERSONNES := 
1
2
3
4
5;

set TACHES :=
T1
T2
T3
T4
T5;

param mattaches: T1 T2 T3 T4 T5 :=
1 8 7 3 5 6
2 4 6 2 10 4
3 10 4 8 10 3
4 7 5 4 1 2 
5 1 3 5 7 8;

end;

